tsp_instances/TSP20/instance49.tsp
NODE_COORD_SECTION
0 174 103
1 140 75
2 28 72
3 178 17
4 104 37
5 47 120
6 97 79
7 93 179
8 108 124
9 192 148
10 13 153
11 166 164
12 142 190
13 28 142
14 190 98
15 189 77
16 49 50
17 54 68
18 19 89
19 83 181
