tsp_instances/TSP20/instance49.opt.tour
TOUR_SECTION
1
10
12
13
8
20
11
14
6
19
3
18
17
5
7
9
2
4
16
15
-1